10J3M/DAT/10J3MNLR-18.dat
10 3
36.7316 48.0172
25.8828 34.9489
25.8853 40.2087
18.1863 3.383
28.8671 5.1771
32.9663 16.4687
25.189 24.6032
26.4028 36.5383
29.383 12.9624
28.2188 38.0715
86.793