10J3M/SOL/10J3MNLR-18.sol
solution status: optimal solution found
objective value:                               92.571
x#1#3                                               1 	(obj:0)
x#2#1                                               1 	(obj:0)
x#3#1                               0.359510492843473 	(obj:0)
x#3#3                               0.640489507156527 	(obj:0)
x#4#1                                               1 	(obj:0)
x#5#1                               0.287055922686226 	(obj:0)
x#5#3                               0.712944077313774 	(obj:0)
x#6#2                                 0.4333756294708 	(obj:0)
x#6#3                                 0.5666243705292 	(obj:0)
x#7#1                                               1 	(obj:0)
x#8#1                               0.216658498864637 	(obj:0)
x#8#2                               0.783341501135363 	(obj:0)
x#9#2                                               1 	(obj:0)
x#10#2                                              1 	(obj:0)
z                                              92.571 	(obj:1)
